#------------------------------------------------------------------------------
#$Date: 2018-09-27 07:13:35 +0300 (Thu, 27 Sep 2018) $
#$Revision: 211196 $
#$URL: file:///home/coder/svn-repositories/cod/cif/1/53/79/1537946.cif $
#------------------------------------------------------------------------------
#
# This file is available in the Crystallography Open Database (COD),
# http://www.crystallography.net/
#
# All data on this site have been placed in the public domain by the
# contributors.
#
data_1537946
loop_
_publ_author_name
'Eremenko, V.N.'
'Shtepa, T.D.'
'Khoruzhaya, V.G.'
_publ_section_title
;
 The Ti-Ru phase diagram
;
_journal_name_full               'Russian Metallurgy'
_journal_page_first              155
_journal_page_last               156
_journal_volume                  1973
_journal_year                    1973
_chemical_formula_sum            'Ru Ti'
_space_group_IT_number           221
_symmetry_space_group_name_Hall  '-P 4 2 3'
_symmetry_space_group_name_H-M   'P m -3 m'
_cell_angle_alpha                90
_cell_angle_beta                 90
_cell_angle_gamma                90
_cell_formula_units_Z            1
_cell_length_a                   3.07
_cell_length_b                   3.07
_cell_length_c                   3.07
_cell_volume                     28.934
_citation_journal_id_ASTM        RMLYAQ
_cod_data_source_file            Eremenko_RMLYAQ_1973_1712.cif
_cod_data_source_block           Ru1Ti1
_cod_original_cell_volume        28.93444
_cod_original_formula_sum        'Ru1 Ti1'
_cod_database_code               1537946
loop_
_symmetry_equiv_pos_as_xyz
x,y,z
-y,x,z
-x,-y,z
y,-x,z
x,-y,-z
y,x,-z
-x,y,-z
-y,-x,-z
z,x,y
-x,z,y
-z,-x,y
x,-z,y
z,-x,-y
x,z,-y
-z,x,-y
-x,-z,-y
y,z,x
y,-z,-x
z,y,-x
-y,z,-x
-z,-y,-x
-y,-z,x
z,-y,x
-z,y,x
-x,-y,-z
y,-x,-z
x,y,-z
-y,x,-z
-x,y,z
-y,-x,z
x,-y,z
y,x,z
-z,-x,-y
x,-z,-y
z,x,-y
-x,z,-y
-z,x,y
-x,-z,y
z,-x,y
x,z,y
-y,-z,-x
-y,z,x
-z,-y,x
y,-z,x
z,y,x
y,z,-x
-z,y,-x
z,-y,-x
loop_
_atom_site_label
_atom_site_type_symbol
_atom_site_fract_x
_atom_site_fract_y
_atom_site_fract_z
_atom_site_occupancy
_atom_site_U_iso_or_equiv
Ti1 Ti 0.5 0.5 0.5 1 0.0
Ru1 Ru 0 0 0 1 0.0
