#------------------------------------------------------------------------------
#$Date: 2018-09-27 07:13:35 +0300 (Thu, 27 Sep 2018) $
#$Revision: 211196 $
#$URL: file:///home/coder/svn-repositories/cod/cif/1/54/08/1540875.cif $
#------------------------------------------------------------------------------
#
# This file is available in the Crystallography Open Database (COD),
# http://www.crystallography.net/
#
# All data on this site have been placed in the public domain by the
# contributors.
#
data_1540875
loop_
_publ_author_name
'Saccone, A.'
'Cacciamani, G.'
'Delfino, S.'
'Ferro, R.'
_publ_section_title
;
 The binary phase diagrams of thallium with gadolinium, terbium and
 dysprosium
;
_journal_name_full               'Journal of the Less-Common Metals'
_journal_page_first              249
_journal_page_last               259
_journal_volume                  136
_journal_year                    1988
_chemical_formula_sum            'Tb Tl3'
_space_group_IT_number           221
_symmetry_space_group_name_Hall  '-P 4 2 3'
_symmetry_space_group_name_H-M   'P m -3 m'
_cell_angle_alpha                90
_cell_angle_beta                 90
_cell_angle_gamma                90
_cell_formula_units_Z            1
_cell_length_a                   4.682
_cell_length_b                   4.682
_cell_length_c                   4.682
_cell_volume                     102.635
_citation_journal_id_ASTM        JCOMAH
_cod_data_source_file            Saccone_JCOMAH_1988_109.cif
_cod_data_source_block           Tb1Tl3
_cod_original_cell_volume        102.6347
_cod_original_formula_sum        'Tb1 Tl3'
_cod_database_code               1540875
loop_
_symmetry_equiv_pos_as_xyz
x,y,z
-y,x,z
-x,-y,z
y,-x,z
x,-y,-z
y,x,-z
-x,y,-z
-y,-x,-z
z,x,y
-x,z,y
-z,-x,y
x,-z,y
z,-x,-y
x,z,-y
-z,x,-y
-x,-z,-y
y,z,x
y,-z,-x
z,y,-x
-y,z,-x
-z,-y,-x
-y,-z,x
z,-y,x
-z,y,x
-x,-y,-z
y,-x,-z
x,y,-z
-y,x,-z
-x,y,z
-y,-x,z
x,-y,z
y,x,z
-z,-x,-y
x,-z,-y
z,x,-y
-x,z,-y
-z,x,y
-x,-z,y
z,-x,y
x,z,y
-y,-z,-x
-y,z,x
-z,-y,x
y,-z,x
z,y,x
y,z,-x
-z,y,-x
z,-y,-x
loop_
_atom_site_label
_atom_site_type_symbol
_atom_site_fract_x
_atom_site_fract_y
_atom_site_fract_z
_atom_site_occupancy
_atom_site_U_iso_or_equiv
Tl1 Tl 0 0.5 0.5 1 0.0
Tb1 Tb 0 0 0 1 0.0
