#------------------------------------------------------------------------------
#$Date: 2021-05-18 19:36:50 +0300 (Tue, 18 May 2021) $
#$Revision: 265307 $
#$URL: file:///home/coder/svn-repositories/cod/cif/3/00/01/3000103.cif $
#------------------------------------------------------------------------------
#
# This file is available in the Crystallography Open Database (COD),
# http://www.crystallography.net/
#
# All data on this site have been placed in the public domain by the
# contributors.
#
data_3000103
loop_
_publ_author_name
'Bubnova, Rimma'
'Volkov, Sergey'
'Barbara Albert'
'Filatov, Stanislav'
_publ_section_title
;
 Borates--Crystal Structures of Prospective Nonlinear Optical Materials:
 High Anisotropy of the Thermal Expansion Caused by Anharmonic Atomic
 Vibrations
;
_journal_issue                   3
_journal_name_full               Crystals
_journal_page_first              93
_journal_paper_doi               10.3390/cryst7030093
_journal_volume                  7
_journal_year                    2017
_chemical_formula_sum            'B2 Ba O4'
_chemical_formula_weight         223
_space_group_IT_number           161
_symmetry_cell_setting           trigonal
_symmetry_Int_Tables_number      161
_symmetry_space_group_name_Hall  'R 3 -2"c'
_symmetry_space_group_name_H-M   'R 3 c :H'
_cell_angle_alpha                90
_cell_angle_beta                 90
_cell_angle_gamma                120
_cell_formula_units_Z            18
_cell_length_a                   12.5828(15)
_cell_length_b                   12.5828(15)
_cell_length_c                   12.7291(18)
_cell_measurement_temperature    173
_cell_volume                     1745.4(4)
_diffrn_ambient_temperature      173
_diffrn_measured_fraction_theta_full 0.98
_diffrn_measured_fraction_theta_max 0.98
_diffrn_measurement_device       'four-circle diffractometer'
_diffrn_measurement_device_type  'IPDS Stoe'
_diffrn_measurement_method       '??integration method??'
_diffrn_radiation_monochromator  graphite
_diffrn_radiation_probe          x-ray
_diffrn_radiation_source         'X-ray tube'
_diffrn_radiation_type           'Mo K\a'
_diffrn_radiation_wavelength     0.71073
_diffrn_reflns_av_R_equivalents  0.0784
_diffrn_reflns_av_unetI/netI     0.0036
_diffrn_reflns_limit_h_max       16
_diffrn_reflns_limit_h_min       -17
_diffrn_reflns_limit_k_max       17
_diffrn_reflns_limit_k_min       -17
_diffrn_reflns_limit_l_max       17
_diffrn_reflns_limit_l_min       -17
_diffrn_reflns_number            5121
_diffrn_reflns_theta_full        29.2
_diffrn_reflns_theta_max         29.2
_diffrn_reflns_theta_min         3.24
_exptl_absorpt_coefficient_mu    10.1
_exptl_crystal_density_diffrn    3.8182
_exptl_crystal_F_000             1764
_refine_diff_density_max         0.95
_refine_diff_density_min         -0.86
_refine_ls_abs_structure_details
'  513 of Friedel pairs used in the refinement'
_refine_ls_extinction_coef       3600(300)
_refine_ls_extinction_method
'B-C type 1 Gaussian isotropic (Becker & Coppens, 1974)'
_refine_ls_goodness_of_fit_gt    3.50
_refine_ls_goodness_of_fit_ref   3.49
_refine_ls_number_constraints    1
_refine_ls_number_parameters     65
_refine_ls_number_reflns         1036
_refine_ls_number_restraints     0
_refine_ls_R_factor_all          0.0294
_refine_ls_R_factor_gt           0.0293
_refine_ls_shift/su_max          0.0221
_refine_ls_shift/su_mean         0.0089
_refine_ls_structure_factor_coef F
_refine_ls_weighting_details     w=1/(\s^2^(F)+0.0001F^2^)
_refine_ls_weighting_scheme      sigma
_refine_ls_wR_factor_gt          0.0392
_refine_ls_wR_factor_ref         0.0392
_reflns_number_gt                1032
_reflns_number_total             1036
_reflns_threshold_expression     I>3\s(I)
_cod_data_source_file            b-BaB2O4_173K.cif
_cod_data_source_block           I
_cod_depositor_comments
;
The following automatic conversions were performed:

'_diffrn_radiation_probe' value 'X-ray' changed to 'x-ray' according
to the built-in table from CIF Core dictionary named 'cif_core.dic'
version 2.4.1 from 2010-06-29.

Automatic conversion script
Id: cif_fix_values 4624 2016-04-14 12:54:50Z antanas 

 Released structure into public domain as published material.

 Antanas Vaitkus,
 2021-05-18
;
_cod_original_sg_symbol_Hall     'R 3;-2"c'
_cod_original_sg_symbol_H-M      'R 3 c'
_cod_original_formula_sum        'B2 Ba1 O4'
_cod_database_code               3000103
loop_
_space_group_symop_id
_space_group_symop_operation_xyz
1 x,y,z
2 -y,x-y,z
3 -x+y,-x,z
4 -y,-x,z+1/2
5 -x+y,y,z+1/2
6 x,x-y,z+1/2
7 x+2/3,y+1/3,z+1/3
8 -y+2/3,x-y+1/3,z+1/3
9 -x+y+2/3,-x+1/3,z+1/3
10 -y+2/3,-x+1/3,z+5/6
11 -x+y+2/3,y+1/3,z+5/6
12 x+2/3,x-y+1/3,z+5/6
13 x+1/3,y+2/3,z+2/3
14 -y+1/3,x-y+2/3,z+2/3
15 -x+y+1/3,-x+2/3,z+2/3
16 -y+1/3,-x+2/3,z+1/6
17 -x+y+1/3,y+2/3,z+1/6
18 x+1/3,x-y+2/3,z+1/6
loop_
_atom_site_label
_atom_site_type_symbol
_atom_site_fract_x
_atom_site_fract_y
_atom_site_fract_z
_atom_site_adp_type
_atom_site_U_iso_or_equiv
_atom_site_site_symmetry_multiplicity
_atom_site_occupancy
_atom_site_calc_flag
_atom_site_refinement_flags
_atom_site_disorder_assembly
_atom_site_disorder_group
B1 B 0.0213(6) -0.1018(6) 0.2430(6) Uani 0.011(2) 18 1 d . . .
B2 B 0.0425(7) -0.0872(7) 0.5035(6) Uani 0.012(2) 18 1 d . . .
Ba1 Ba 0.36122(3) 0.35814(3) 0.379909(18) Uani 0.00934(17) 18 1 d . . .
O1 O -0.0410(5) 0.0833(5) 0.5015(4) Uani 0.0145(17) 18 1 d . . .
O2 O 0.1639(5) 0.2497(5) 0.5090(4) Uani 0.0145(17) 18 1 d . . .
O3 O 0.1184(4) 0.0211(4) 0.2442(4) Uani 0.0145(17) 18 1 d . . .
O4 O 0.0456(4) 0.2383(4) 0.7349(4) Uani 0.0127(16) 18 1 d . . .
loop_
_atom_site_aniso_label
_atom_site_aniso_type_symbol
_atom_site_aniso_U_11
_atom_site_aniso_U_22
_atom_site_aniso_U_33
_atom_site_aniso_U_12
_atom_site_aniso_U_13
_atom_site_aniso_U_23
B1 B 0.008(3) 0.009(3) 0.015(3) 0.004(2) 0.001(2) 0.002(2)
B2 B 0.009(3) 0.010(3) 0.014(3) 0.004(2) -0.002(2) -0.003(2)
Ba1 Ba 0.0068(2) 0.0069(2) 0.0144(2) 0.00351(13) -0.00026(16) 0.00007(17)
O1 O 0.010(2) 0.008(2) 0.027(3) 0.0055(17) -0.0011(19) -0.0010(19)
O2 O 0.012(2) 0.010(2) 0.021(2) 0.0054(17) 0.0042(18) 0.0022(17)
O3 O 0.0071(19) 0.007(2) 0.031(3) 0.0042(18) 0.0009(17) 0.0002(18)
O4 O 0.013(2) 0.009(2) 0.016(2) 0.0047(18) 0.0019(16) -0.0017(17)
loop_
_atom_type_symbol
_atom_type_scat_dispersion_real
_atom_type_scat_dispersion_imag
_atom_type_scat_source
B 0.0013 0.0007 'International Tables Vol C tables 4.2.6.8 and 6.1.1.1'
Ba -0.3244 2.2819 'International Tables Vol C tables 4.2.6.8 and 6.1.1.1'
O 0.0106 0.0060 'International Tables Vol C tables 4.2.6.8 and 6.1.1.1'
loop_
_geom_angle_atom_site_label_1
_geom_angle_atom_site_label_2
_geom_angle_atom_site_label_3
_geom_angle_site_symmetry_1
_geom_angle_site_symmetry_2
_geom_angle_site_symmetry_3
_geom_angle
B2 O1 B2 2_555 . 3_555 124.2(9)
B1 O3 B1 . . 2_555 124.0(6)
loop_
_geom_bond_atom_site_label_1
_geom_bond_atom_site_label_2
_geom_bond_site_symmetry_1
_geom_bond_site_symmetry_2
_geom_bond_distance
O1 B2 . 2_555 1.415(10)
O1 B2 . 3_555 1.409(8)
O2 B2 . 2_555 1.327(11)
O3 B1 . . 1.413(7)
O3 B1 . 2_555 1.399(14)
O4 B1 . 6_555 1.328(12)
loop_
_refln_index_h
_refln_index_k
_refln_index_l
_refln_F_squared_calc
_refln_F_squared_meas
_refln_F_squared_sigma
_refln_observed_status
-1 2 0 67731.70 81081.70 255.74 o
-2 4 0 180822.00 154988.00 708.86 o
-1 5 0 149269.00 162605.00 301.52 o
-4 5 0 155595.00 183266.00 260.32 o
0 6 0 154684.00 141380.00 325.94 o
-6 6 0 152690.00 172763.00 228.76 o
-2 7 0 69500.40 71568.20 142.35 o
-5 7 0 72080.00 74743.00 117.72 o
-4 8 0 78187.20 79558.30 127.39 o
-1 8 0 23212.90 20548.20 108.21 o
-7 8 0 21818.40 24802.60 77.52 o
-3 9 0 136113.00 131011.00 171.35 o
-6 9 0 135481.00 144310.00 147.91 o
0 9 0 63818.90 54086.10 198.43 o
-9 9 0 61826.00 66299.50 135.30 o
-5 10 0 258.69 542.63 66.68 o
-2 10 0 365.04 367.91 85.08 o
-8 10 0 204.47 940.35 57.48 o
-4 11 0 19612.50 17935.90 91.00 o
-7 11 0 18969.50 19594.70 83.96 o
-1 11 0 7748.22 6873.44 92.45 o
-10 11 0 7468.05 8101.41 64.70 o
-6 12 0 8515.42 8686.13 76.32 o
-3 12 0 4477.12 5328.58 92.23 o
-9 12 0 5131.74 4899.57 64.59 o
0 12 0 1264.63 1062.85 138.03 o
-12 12 0 1322.77 1327.47 96.63 o
-5 13 0 4476.16 4525.52 89.91 o
-8 13 0 4491.92 4862.16 76.08 o
-2 13 0 1726.32 1951.40 98.95 o
-11 13 0 1944.71 1873.41 69.04 o
-7 14 0 21897.20 21312.70 93.17 o
-4 14 0 13926.10 12907.10 97.34 o
-10 14 0 14119.20 13970.20 78.81 o
-1 14 0 1991.22 2317.42 112.76 o
-13 14 0 2380.62 2347.85 80.56 o
-6 15 0 1940.50 1937.70 87.45 o
-9 15 0 1826.04 2121.67 75.94 o
-3 15 0 5631.65 5273.55 101.46 o
-12 15 0 5739.75 5638.21 85.32 o
-8 16 0 18600.30 17994.00 109.14 o
-5 16 0 24812.30 22889.10 116.47 o
-11 16 0 25468.40 25029.30 97.87 o
-7 17 0 14743.50 13543.00 122.78 o
-10 17 0 14385.80 14689.30 111.18 o
-2 3 1 19146.40 18742.90 131.07 o
-1 3 -1 18597.80 19257.30 118.75 o
-1 4 1 58252.00 65030.50 158.01 o
-3 4 -1 61084.40 64500.70 156.28 o
-3 5 1 16124.70 14209.70 94.61 o
-2 5 -1 14042.50 16927.10 82.48 o
-5 6 1 80761.60 92128.10 125.31 o
-1 6 -1 83339.70 76135.00 177.03 o
-2 6 1 180442.00 194727.00 302.82 o
-4 6 -1 176987.00 191302.00 368.29 o
-4 7 1 42344.20 39168.20 113.83 o
-3 7 -1 39859.50 43006.30 96.58 o
-1 7 1 106709.00 107582.00 165.45 o
-6 7 -1 110161.00 116154.00 142.69 o
-6 8 1 12889.30 13291.90 62.91 o
-2 8 -1 12943.60 11654.60 95.53 o
-3 8 1 6853.78 7000.81 76.42 o
-5 8 -1 7236.85 6996.75 64.87 o
-8 9 1 19245.20 22091.90 72.46 o
-1 9 -1 20980.40 17735.80 102.99 o
-5 9 1 100179.00 101497.00 156.25 o
-4 9 -1 102079.00 99855.80 138.84 o
-2 9 1 183507.00 172805.00 198.58 o
-7 9 -1 178745.00 201457.00 173.78 o
-7 10 1 28863.50 26918.60 80.04 o
-3 10 -1 25742.10 26948.80 98.62 o
-4 10 1 121581.00 123052.00 167.40 o
-6 10 -1 125613.00 126609.00 139.93 o
-1 10 1 147902.00 132053.00 197.12 o
-9 10 -1 149342.00 159910.00 140.94 o
-9 11 1 21462.80 21004.60 77.03 o
-2 11 -1 20836.00 18610.60 105.00 o
-6 11 1 6151.49 5085.92 69.29 o
-5 11 -1 5491.48 5662.78 69.26 o
-3 11 1 2820.91 3102.96 80.63 o
-8 11 -1 3120.33 3023.00 66.82 o
-11 12 1 6255.79 7101.37 73.85 o
-1 12 -1 6643.88 5872.70 96.96 o
-8 12 1 30670.90 33206.50 86.85 o
-4 12 -1 31527.10 30569.30 105.69 o
-5 12 1 97495.70 93211.10 130.12 o
-7 12 -1 94555.40 100127.00 132.32 o
-2 12 1 129883.00 113389.00 186.99 o
-10 12 -1 128717.00 137911.00 129.55 o
-10 13 1 13585.90 14636.80 78.82 o
-3 13 -1 14077.60 12531.10 95.07 o
-7 13 1 71490.60 70404.50 117.84 o
-6 13 -1 70518.90 68694.50 134.59 o
-4 13 1 116387.00 102377.00 177.63 o
-9 13 -1 118874.00 120887.00 148.24 o
-1 13 1 120517.00 102745.00 186.96 o
-12 13 -1 119438.00 126516.00 130.31 o
-12 14 1 2165.98 2336.12 73.65 o
-2 14 -1 2312.31 1898.97 96.68 o
-9 14 1 2476.41 2348.22 69.07 o
-5 14 -1 2528.45 2293.04 94.39 o
-6 14 1 3044.60 3129.77 80.60 o
-8 14 -1 3116.31 3136.81 78.31 o
-3 14 1 817.95 1037.24 98.89 o
-11 14 -1 764.89 917.62 75.89 o
-14 15 1 4062.21 4273.43 94.45 o
-1 15 -1 3878.40 3996.59 103.66 o
-11 15 1 5107.24 5276.85 80.69 o
-4 15 -1 5014.03 4744.07 101.43 o
-8 15 1 39705.00 38939.20 98.73 o
-7 15 -1 38958.50 38016.10 119.84 o
-5 15 1 69793.20 65291.50 143.31 o
-10 15 -1 72061.20 71272.80 119.57 o
-2 15 1 93933.00 84470.80 185.89 o
-13 15 -1 95644.20 98159.40 135.31 o
-13 16 1 12123.00 12721.80 92.54 o
-3 16 -1 12293.10 11468.90 124.94 o
-10 16 1 13896.20 14165.20 90.33 o
-6 16 -1 14231.90 12062.00 113.51 o
-7 16 1 52837.60 51023.60 137.15 o
-9 16 -1 52977.80 51176.30 144.25 o
-4 16 1 67565.70 59604.20 147.62 o
-12 16 -1 65655.60 69979.50 126.07 o
-9 17 1 3519.46 2940.99 92.12 o
-8 17 -1 2940.76 3103.56 105.91 o
-11 17 -1 5069.95 4291.71 251.23 o
0 1 2 12978.60 12742.60 174.36 o
-1 1 -2 13014.90 13703.50 184.07 o
-2 2 2 24989.00 27182.30 205.53 o
0 2 -2 25685.90 27795.20 203.46 o
-1 3 2 1894.44 2335.32 87.78 o
-2 3 -2 1810.35 2538.05 110.85 o
-3 4 2 34784.10 35941.30 122.97 o
-1 4 -2 34431.50 35735.50 130.26 o
0 4 2 62611.50 65700.90 217.88 o
-4 4 -2 59953.20 71388.40 222.03 o
-5 5 2 186590.00 174802.00 488.50 o
0 5 -2 191527.00 167947.00 482.47 o
-2 5 2 65186.70 63463.60 160.87 o
-3 5 -2 62846.00 71761.00 150.11 o
-4 6 2 18883.90 20700.70 87.31 o
-2 6 -2 19917.30 18678.80 89.80 o
-1 6 2 3861.79 4508.06 69.32 o
-5 6 -2 4352.93 4272.86 67.05 o
-6 7 2 45521.90 47033.80 99.12 o
-1 7 -2 44618.70 42607.00 132.83 o
-3 7 2 43329.00 44385.80 121.04 o
-4 7 -2 44718.20 45173.00 101.84 o
0 7 2 58055.40 58077.90 158.61 o
-7 7 -2 57885.30 62720.60 168.34 o
-8 8 2 229264.00 257337.00 283.85 o
0 8 -2 232950.00 196644.00 454.86 o
-5 8 2 131098.00 137202.00 170.20 o
-3 8 -2 129758.00 130679.00 164.75 o
-2 8 2 57314.50 55300.90 126.57 o
-6 8 -2 57306.50 60976.50 107.10 o
-7 9 2 52303.90 54565.90 98.67 o
-2 9 -2 51884.10 49039.70 125.10 o
-4 9 2 10135.40 10710.20 81.23 o
-5 9 -2 10630.20 10355.20 69.65 o
-1 9 2 5886.55 5600.31 76.24 o
-8 9 -2 6307.10 5944.38 64.71 o
-9 10 2 62831.90 62808.20 98.75 o
-1 10 -2 59723.00 57221.30 141.79 o
-6 10 2 42408.30 45516.20 102.36 o
-4 10 -2 44931.70 40638.10 112.11 o
-3 10 2 38341.90 37183.40 109.07 o
-7 10 -2 38707.70 39905.10 90.13 o
0 10 2 13131.60 10772.40 132.28 o
-10 10 -2 11635.30 14117.60 97.36 o
-11 11 2 203376.00 220005.00 249.89 o
0 11 -2 204184.00 184090.00 333.34 o
-8 11 2 175918.00 190396.00 163.47 o
-3 11 -2 175980.00 166186.00 197.21 o
-5 11 2 89048.80 83822.60 142.35 o
-6 11 -2 84294.40 90121.90 132.08 o
-2 11 2 27507.10 26464.60 100.79 o
-9 11 -2 28866.00 28795.90 84.46 o
-10 12 2 55988.10 56310.30 102.43 o
-2 12 -2 54254.70 52958.50 126.12 o
-7 12 2 18454.10 20089.80 81.49 o
-5 12 -2 19662.30 17725.00 95.53 o
-4 12 2 9877.33 10377.30 92.57 o
-8 12 -2 10755.90 10564.10 74.10 o
-1 12 2 985.99 1143.20 96.61 o
-11 12 -2 1067.15 1177.76 59.81 o
-12 13 2 37630.80 39513.50 103.36 o
-1 13 -2 38407.00 35100.70 122.21 o
-9 13 2 40559.40 42513.20 94.29 o
-4 13 -2 41581.80 38119.50 117.94 o
-6 13 2 22879.10 21865.20 93.30 o
-7 13 -2 22537.90 22597.50 102.61 o
-3 13 2 2757.81 2537.55 92.11 o
-10 13 -2 2780.65 2876.09 71.38 o
0 13 2 6217.19 5958.69 168.40 o
-13 13 -2 6447.38 6533.96 115.36 o
-14 14 2 102239.00 102196.00 196.38 o
0 14 -2 99366.30 96884.50 234.83 o
-11 14 2 139719.00 146078.00 148.89 o
-3 14 -2 141667.00 129729.00 188.79 o
-8 14 2 97475.60 100186.00 128.90 o
-6 14 -2 98149.70 94175.30 158.14 o
-5 14 2 37830.90 34601.10 115.17 o
-9 14 -2 36621.80 38905.50 117.43 o
-2 14 2 1540.24 1750.89 103.54 o
-12 14 -2 1789.59 1785.65 73.64 o
-13 15 2 23869.90 24802.80 100.11 o
-2 15 -2 24050.00 22888.80 111.77 o
-10 15 2 27195.80 28751.80 95.68 o
-5 15 -2 28350.50 25633.80 121.43 o
-7 15 2 26915.00 25688.50 98.02 o
-8 15 -2 25731.80 26562.60 114.28 o
-4 15 2 11774.70 10675.70 120.32 o
-11 15 -2 11982.90 12160.20 97.19 o
-1 15 2 979.86 800.39 124.20 o
-14 15 -2 990.91 1062.59 85.10 o
-12 16 2 19133.80 19536.10 97.53 o
-4 16 -2 19323.60 17717.30 125.41 o
-9 16 2 8689.09 8259.18 94.69 o
-7 16 -2 8220.28 8076.99 110.83 o
-6 16 2 2913.08 2785.90 96.70 o
-10 16 -2 2901.23 2891.79 101.31 o
-3 16 2 4034.46 3107.64 126.70 o
-13 16 -2 3552.44 4039.59 103.64 o
-8 17 2 26341.60 27104.80 109.54 o
-9 17 -2 27400.20 24787.80 142.24 o
-3 6 3 9527.27 10498.00 88.47 o
-3 6 -3 9427.41 10401.10 86.13 o
-5 7 3 133786.00 136451.00 172.24 o
-2 7 -3 129636.00 140507.00 184.72 o
-2 7 3 120051.00 130682.00 172.50 o
-5 7 -3 122012.00 126541.00 183.32 o
-7 8 3 84931.60 90680.40 124.17 o
-1 8 -3 86415.70 82903.30 154.17 o
-4 8 3 65686.60 65508.40 132.53 o
-4 8 -3 63986.70 66410.40 129.87 o
-1 8 3 68378.90 67212.70 122.37 o
-7 8 -3 68127.80 73028.50 127.24 o
-6 9 3 1947.70 2657.43 69.08 o
-3 9 -3 2448.34 2015.85 78.33 o
-3 9 3 6612.23 6107.14 83.25 o
-6 9 -3 6238.78 7110.68 73.97 o
-8 10 3 39317.30 37258.20 90.02 o
-2 10 -3 35840.80 37463.20 113.41 o
-5 10 3 44346.90 45443.20 109.60 o
-5 10 -3 44384.60 44689.30 107.22 o
-2 10 3 40549.50 42511.50 116.18 o
-8 10 -3 45408.40 42995.10 97.57 o
-10 11 3 5988.68 6206.42 71.55 o
-1 11 -3 6157.88 5761.61 83.10 o
-7 11 3 10684.40 12423.20 71.82 o
-4 11 -3 12584.00 10097.10 85.84 o
-4 11 3 18480.80 16655.60 97.86 o
-7 11 -3 17165.60 19298.10 83.80 o
-1 11 3 10447.20 8456.69 97.23 o
-10 11 -3 9679.44 10807.80 74.04 o
-9 12 3 4301.49 5588.02 66.85 o
-3 12 -3 5282.08 4115.28 92.27 o
-6 12 3 13845.80 13842.20 85.86 o
-6 12 -3 13678.50 14056.40 97.45 o
-3 12 3 5653.53 4778.49 85.37 o
-9 12 -3 4931.34 5834.79 76.11 o
-11 13 3 3639.03 4024.65 76.02 o
-2 13 -3 3786.39 3515.83 85.25 o
-8 13 3 16032.80 15673.20 81.27 o
-5 13 -3 15715.70 14901.70 104.47 o
-5 13 3 18531.80 18092.90 93.02 o
-8 13 -3 18774.50 19251.60 88.38 o
-2 13 3 3494.81 3206.54 105.96 o
-11 13 -3 3273.09 3719.74 78.31 o
-13 14 3 2721.42 2762.65 80.58 o
-1 14 -3 2758.52 2689.03 99.00 o
-10 14 3 3117.03 3689.30 76.00 o
-4 14 -3 3181.36 2947.86 99.03 o
-7 14 3 4997.40 5422.78 83.00 o
-7 14 -3 5088.00 5266.28 94.53 o
-4 14 3 3268.81 2996.38 94.43 o
-10 14 -3 3052.15 3544.08 82.90 o
-1 14 3 5032.98 4312.88 122.17 o
-13 14 -3 4879.28 5361.26 82.98 o
-12 15 3 10459.70 10546.60 90.16 o
-3 15 -3 10150.10 10105.60 108.64 o
-9 15 3 24698.30 24468.60 97.88 o
-6 15 -3 24027.90 23735.10 121.14 o
-6 15 3 29053.50 29255.70 102.79 o
-9 15 -3 29489.50 30101.60 123.85 o
-3 15 3 4268.17 3543.71 122.12 o
-12 15 -3 4404.48 4421.90 89.87 o
-11 16 3 3943.16 4024.42 87.54 o
-5 16 -3 4110.24 3651.56 112.89 o
-8 16 3 1632.93 1414.99 92.03 o
-8 16 -3 1323.61 1663.20 110.42 o
-5 16 3 1572.65 1161.86 117.34 o
-11 16 -3 1327.61 1932.34 115.02 o
0 2 4 23276.00 18968.30 161.26 o
-2 2 -4 20063.20 24107.80 167.43 o
-2 3 4 3595.23 4438.18 87.93 o
-1 3 -4 3792.54 4148.12 83.33 o
-4 4 4 24244.90 24437.20 145.30 o
0 4 -4 25536.40 25270.30 138.41 o
-1 4 4 15302.40 15319.10 87.12 o
-3 4 -4 15220.10 14705.00 94.17 o
-3 5 4 78427.80 83037.90 143.04 o
-2 5 -4 77979.60 78989.90 163.38 o
0 5 4 171830.00 195079.00 325.75 o
-5 5 -4 178124.00 186771.00 327.93 o
-5 6 4 21991.90 22511.00 87.26 o
-1 6 -4 21820.60 23084.20 96.68 o
-2 6 4 13185.50 11371.50 72.42 o
-4 6 -4 10830.30 14099.40 88.51 o
-7 7 4 49252.60 47970.20 142.11 o
0 7 -4 46870.80 50037.00 185.05 o
-4 7 4 19403.40 19441.20 89.21 o
-3 7 -4 19310.40 19265.60 89.20 o
-1 7 4 31748.50 31220.50 94.95 o
-6 7 -4 31588.60 32115.00 109.18 o
-6 8 4 36641.10 37315.70 99.89 o
-2 8 -4 36240.80 37299.70 109.36 o
-3 8 4 132887.00 143703.00 176.48 o
-5 8 -4 135097.00 139906.00 184.62 o
0 8 4 171982.00 171589.00 266.36 o
-8 8 -4 170056.00 183989.00 287.04 o
-8 9 4 4419.76 3997.96 64.59 o
-1 9 -4 3743.98 4254.03 76.09 o
-5 9 4 16117.80 16512.40 86.26 o
-4 9 -4 16302.90 16104.70 95.60 o
-2 9 4 78353.50 77148.50 137.19 o
-7 9 -4 78832.10 82159.80 154.39 o
-10 10 4 11675.60 12641.40 101.96 o
0 10 -4 12375.70 10996.70 125.20 o
-7 10 4 56753.80 59927.50 112.79 o
-3 10 -4 58251.60 56392.60 134.54 o
-4 10 4 61852.80 64613.00 139.84 o
-6 10 -4 62233.50 65784.30 139.88 o
-1 10 4 62497.60 57844.40 134.55 o
-9 10 -4 61990.10 66019.60 129.71 o
-9 11 4 16584.60 17734.00 74.40 o
-2 11 -4 16886.90 16635.40 97.66 o
-6 11 4 78623.00 81090.40 148.20 o
-5 11 -4 79231.10 81213.90 133.68 o
-3 11 4 147749.00 144586.00 180.08 o
-8 11 -4 145159.00 156892.00 164.60 o
0 11 4 188881.00 161019.00 331.75 o
-11 11 -4 187269.00 198712.00 292.91 o
-11 12 4 217.46 478.21 75.87 o
-1 12 -4 118.47 462.09 85.06 o
-8 12 4 8227.03 7934.44 71.65 o
-4 12 -4 7653.17 8157.87 90.10 o
-5 12 4 21952.10 22248.70 104.96 o
-7 12 -4 21949.90 23020.70 107.29 o
-2 12 4 36444.80 34476.00 108.16 o
-10 12 -4 38446.90 38106.10 108.30 o
-13 13 4 4098.76 4073.52 112.90 o
0 13 -4 3600.65 3901.94 138.20 o
-10 13 4 5314.54 4660.62 78.41 o
-3 13 -4 4720.28 5166.13 96.82 o
-7 13 4 15349.60 15982.90 88.19 o
-6 13 -4 15473.10 15392.30 118.37 o
-4 13 4 27076.10 27169.00 107.49 o
-9 13 -4 27012.50 28663.50 112.16 o
-1 13 4 31313.10 27327.10 128.69 o
-12 13 -4 30888.90 31465.80 93.57 o
-12 14 4 5083.85 5230.62 87.60 o
-2 14 -4 4852.94 4990.23 99.11 o
-9 14 4 37131.20 38117.90 96.27 o
-5 14 -4 37377.30 37378.70 138.56 o
-6 14 4 94196.10 92945.50 174.56 o
-8 14 -4 94688.90 95308.30 177.03 o
-3 14 4 135018.00 129295.00 177.97 o
-11 14 -4 135599.00 138870.00 165.66 o
0 14 4 129843.00 120175.00 282.43 o
-14 14 -4 132707.00 133108.00 228.72 o
-14 15 4 837.18 1039.50 160.99 o
-11 15 4 9346.92 9246.60 87.80 o
-4 15 -4 9457.79 8891.32 113.22 o
-8 15 4 13647.10 14319.10 88.02 o
-7 15 -4 14098.30 13771.20 111.21 o
-5 15 4 24125.80 24119.80 123.45 o
-10 15 -4 23912.00 25221.00 102.48 o
-2 15 4 21657.50 18534.30 134.86 o
-13 15 -4 20752.60 22044.20 97.61 o
-10 16 4 3470.49 3136.73 89.82 o
-6 16 -4 3249.31 3801.86 147.38 o
-7 16 4 5904.19 5806.63 92.24 o
-9 16 -4 5685.85 6018.09 110.68 o
-4 16 4 22222.60 19526.00 151.17 o
-12 16 -4 22430.10 22565.80 113.97 o
-1 3 5 35225.10 33421.40 116.44 o
-2 3 -5 36221.70 35149.80 123.90 o
-3 4 5 39984.90 41460.30 131.08 o
-1 4 -5 40857.20 37889.70 128.80 o
-2 5 5 18188.50 18537.60 84.67 o
-3 5 -5 17970.20 18224.50 96.40 o
-4 6 5 77934.60 72664.00 147.57 o
-2 6 -5 73990.50 76139.50 154.44 o
-1 6 5 32251.10 34601.10 114.22 o
-5 6 -5 34360.70 32014.20 104.93 o
-6 7 5 114956.00 116755.00 155.78 o
-1 7 -5 114148.00 120470.00 183.75 o
-3 7 5 37319.50 39658.20 100.23 o
-4 7 -5 37967.60 37775.50 112.24 o
-5 8 5 5351.78 6080.02 73.92 o
-3 8 -5 5476.39 5249.00 71.62 o
-2 8 5 15614.70 15022.30 81.58 o
-6 8 -5 14334.90 16032.10 90.80 o
-7 9 5 145040.00 146953.00 166.76 o
-2 9 -5 142149.00 150234.00 181.78 o
-4 9 5 96062.80 99819.80 151.47 o
-5 9 -5 96427.70 99624.30 144.06 o
-1 9 5 17014.00 17386.10 83.84 o
-8 9 -5 17599.80 17242.40 86.21 o
-9 10 5 108254.00 118590.00 133.52 o
-1 10 -5 113336.00 110769.00 176.13 o
-6 10 5 107932.00 115778.00 151.69 o
-4 10 -5 111387.00 111817.00 152.05 o
-3 10 5 28284.80 26357.90 100.93 o
-7 10 -5 25787.00 28575.50 91.38 o
-8 11 5 4869.09 4951.87 76.11 o
-3 11 -5 5078.24 4811.86 99.19 o
-5 11 5 1351.03 1346.06 71.33 o
-6 11 -5 1273.30 1336.78 73.63 o
-2 11 5 3271.61 2932.71 87.54 o
-9 11 -5 2955.94 3475.67 76.01 o
-10 12 5 117534.00 119473.00 137.96 o
-2 12 -5 115264.00 117622.00 187.00 o
-7 12 5 88238.10 88988.40 136.07 o
-5 12 -5 86793.20 89089.90 140.80 o
-4 12 5 38002.70 41191.20 113.03 o
-8 12 -5 40941.10 39480.90 101.44 o
-1 12 5 5927.35 5218.27 89.97 o
-11 12 -5 5719.12 6071.08 87.65 o
-12 13 5 104353.00 108837.00 136.23 o
-1 13 -5 104676.00 103882.00 180.05 o
-9 13 5 88745.40 90316.60 128.26 o
-4 13 -5 87097.70 89232.10 164.41 o
-6 13 5 46769.40 48095.20 115.84 o
-7 13 -5 47205.30 48481.10 115.87 o
-3 13 5 12193.50 11117.90 125.02 o
-10 13 -5 11456.00 12305.00 85.63 o
-11 14 5 60.02 158.62 78.16 <
-3 14 -5 84.03 280.46 110.35 <
-8 14 5 2149.74 2504.16 82.86 o
-6 14 -5 2319.95 2200.56 96.68 o
-5 14 5 3793.29 3633.02 94.45 o
-9 14 -5 3739.20 3971.55 87.54 o
-2 14 5 3642.98 3118.75 122.08 o
-12 14 -5 3370.06 3592.71 94.42 o
-13 15 5 90219.30 94502.80 142.02 o
-2 15 -5 91232.00 87445.30 192.67 o
-10 15 5 55085.70 54074.70 118.37 o
-5 15 -5 54270.90 54763.90 149.09 o
-7 15 5 27502.70 27892.50 112.01 o
-8 15 -5 27862.80 28271.30 123.70 o
-4 15 5 3719.87 3761.44 103.65 o
-11 15 -5 3372.29 4248.96 96.72 o
-9 16 5 58978.00 58030.10 125.63 o
-7 16 -5 58338.30 59008.90 161.14 o
-6 16 5 13092.80 13670.70 111.11 o
-10 16 -5 13993.30 13478.00 132.00 o
-1 2 6 109975.00 95529.50 165.33 o
-1 2 -6 109760.00 100387.00 178.61 o
-2 4 6 89817.60 85997.00 156.03 o
-2 4 -6 88469.20 89160.40 155.79 o
-4 5 6 71239.90 71333.60 138.96 o
-1 5 -6 71425.90 68957.20 153.88 o
-1 5 6 53958.70 56995.50 124.29 o
-4 5 -6 55723.80 52516.10 129.40 o
-6 6 6 132189.00 124288.00 251.16 o
0 6 -6 127721.00 134268.00 250.21 o
-3 6 6 192689.00 193872.00 248.55 o
-3 6 -6 196773.00 192747.00 254.98 o
0 6 6 174130.00 183565.00 297.65 o
-6 6 -6 173119.00 179724.00 292.04 o
-5 7 6 27470.50 26548.40 89.59 o
-2 7 -6 26829.60 27791.10 103.67 o
-2 7 6 36634.80 38395.90 102.22 o
-5 7 -6 37359.90 36280.10 109.42 o
-7 8 6 23421.40 24573.10 89.02 o
-1 8 -6 24373.70 23724.40 103.15 o
-4 8 6 46913.00 47481.70 112.43 o
-4 8 -6 46497.60 47250.10 121.96 o
-1 8 6 21737.00 22352.80 112.29 o
-7 8 -6 21531.20 21867.30 91.22 o
-9 9 6 34386.80 34423.60 127.15 o
0 9 -6 32950.40 34775.30 171.72 o
-6 9 6 74852.50 77951.30 131.39 o
-3 9 -6 76265.20 75759.90 131.53 o
-3 9 6 67631.60 72263.00 121.01 o
-6 9 -6 68194.10 68651.60 133.17 o
0 9 6 48583.80 45386.80 161.69 o
-9 9 -6 45742.10 50332.20 175.61 o
-8 10 6 830.71 1467.47 75.90 o
-2 10 -6 1076.07 908.70 115.03 o
-5 10 6 3820.63 3736.71 76.07 o
-5 10 -6 3425.43 4019.09 76.05 o
-2 10 6 1158.93 1877.32 73.62 o
-8 10 -6 1472.80 1438.21 85.14 o
-10 11 6 5153.53 5864.63 69.19 o
-1 11 -6 5768.33 5029.41 99.20 o
-7 11 6 30064.20 29702.50 93.80 o
-4 11 -6 29073.00 30672.20 98.43 o
-4 11 6 18770.10 17201.60 90.78 o
-7 11 -6 17031.50 18718.70 86.03 o
-1 11 6 4592.01 4942.73 87.60 o
-10 11 -6 5084.00 4879.68 92.24 o
-12 12 6 2708.79 3121.95 108.21 o
0 12 -6 2876.17 2650.22 140.46 o
-9 12 6 8386.72 8258.06 73.94 o
-3 12 -6 8050.41 8210.17 108.58 o
-6 12 6 7150.84 7701.07 80.82 o
-6 12 -6 7791.99 7147.44 83.16 o
-3 12 6 3939.62 3465.71 85.26 o
-9 12 -6 3586.70 3971.80 85.24 o
0 12 6 643.33 804.86 158.67 o
-12 12 -6 912.90 1534.08 119.60 o
-11 13 6 3192.24 3309.31 82.91 o
-2 13 -6 2979.97 3209.90 117.43 o
-8 13 6 3393.73 4346.50 85.23 o
-5 13 -6 3786.21 3299.22 94.46 o
-5 13 6 5998.44 6482.48 85.36 o
-8 13 -6 6330.16 6310.69 85.37 o
-2 13 6 2199.77 2126.71 96.67 o
-11 13 -6 2032.08 2375.06 85.15 o
-13 14 6 193.73 400.03 82.76 o
-1 14 -6 131.05 275.87 119.54 <
-10 14 6 7787.07 7549.51 85.42 o
-4 14 -6 7361.27 7810.87 117.72 o
-7 14 6 12333.60 13662.00 101.85 o
-7 14 -6 13302.90 12733.80 94.96 o
-4 14 6 10666.80 10526.00 104.06 o
-10 14 -6 10691.40 10817.50 94.81 o
-1 14 6 1527.56 1578.24 151.84 o
-13 14 -6 1675.49 1695.71 92.03 o
-12 15 6 3845.56 4418.02 89.83 o
-3 15 -6 4198.63 3778.37 126.71 o
-9 15 6 1070.56 1265.06 89.70 o
-6 15 -6 1079.41 1200.66 103.50 o
-6 15 6 566.62 768.03 94.28 o
-9 15 -6 551.97 781.82 94.28 o
-3 15 6 2032.60 2285.14 108.16 o
-12 15 -6 2387.31 2053.10 96.67 o
-8 16 6 24884.10 23121.20 109.46 o
-8 16 -6 23465.50 25640.80 139.63 o
-2 3 7 7891.01 6739.91 76.56 o
-1 3 -7 7526.24 7184.63 78.85 o
-1 4 7 29443.60 28654.70 102.03 o
-3 4 -7 31408.90 29791.60 107.00 o
-3 5 7 10577.00 9023.00 76.68 o
-2 5 -7 9393.47 10100.70 83.55 o
-5 6 7 44376.20 44543.60 114.84 o
-1 6 -7 47417.20 42820.80 131.94 o
-2 6 7 119562.00 120292.00 161.15 o
-4 6 -7 116847.00 117553.00 173.54 o
-4 7 7 31145.90 32052.30 92.10 o
-3 7 -7 30778.50 30349.60 113.32 o
-1 7 7 76694.10 78282.10 139.44 o
-6 7 -7 76630.00 76203.70 134.54 o
-6 8 7 11323.50 11336.90 81.18 o
-2 8 -7 10881.00 11685.40 85.79 o
-3 8 7 2694.41 3059.39 69.11 o
-5 8 -7 2916.34 2785.74 80.65 o
-8 9 7 20647.10 22633.40 90.95 o
-1 9 -7 21992.30 20574.60 133.05 o
-5 9 7 56037.70 56475.40 117.36 o
-4 9 -7 55771.40 56313.80 117.34 o
-2 9 7 121261.00 122613.00 162.49 o
-7 9 -7 118072.00 125625.00 169.64 o
-7 10 7 30126.30 27981.70 98.54 o
-3 10 -7 27344.40 31112.00 105.38 o
-4 10 7 54683.10 58211.80 124.06 o
-6 10 -7 57044.00 56269.70 114.69 o
-1 10 7 107455.00 110313.00 162.25 o
-9 10 -7 112206.00 111584.00 160.25 o
-9 11 7 11692.10 11383.00 83.36 o
-2 11 -7 11422.60 11212.10 111.12 o
-6 11 7 5251.36 4742.42 83.04 o
-5 11 -7 4849.49 5490.64 78.40 o
-3 11 7 2052.37 2442.18 82.86 o
-8 11 -7 2139.84 2446.92 85.17 o
-11 12 7 5189.78 5478.09 80.70 o
-1 12 -7 5192.72 5224.49 126.81 o
-8 12 7 16993.80 19164.20 95.22 o
-4 12 -7 18474.90 17549.40 99.95 o
-5 12 7 76056.80 74131.10 139.49 o
-7 12 -7 74125.70 78857.70 134.52 o
-2 12 7 103519.00 100187.00 177.88 o
-10 12 -7 102010.00 104412.00 158.26 o
-10 13 7 9889.57 10164.10 83.22 o
-3 13 -7 9922.17 10143.50 110.96 o
-7 13 7 50731.20 50737.30 115.94 o
-6 13 -7 51096.80 51606.80 123.07 o
-4 13 7 89581.50 89898.70 157.01 o
-9 13 -7 89693.40 92397.10 147.36 o
-1 13 7 86934.20 81859.20 187.73 o
-12 13 -7 86392.80 89473.70 141.96 o
-12 14 7 2578.05 2483.79 87.47 o
-2 14 -7 2417.62 2647.00 126.60 o
-9 14 7 1666.51 1675.04 80.53 o
-5 14 -7 1638.12 1658.91 105.84 o
-6 14 7 1674.88 2057.01 92.04 o
-8 14 -7 1817.04 1907.60 98.95 o
-3 14 7 758.94 1041.77 103.49 o
-11 14 -7 780.61 1103.88 94.29 o
-11 15 7 4937.04 5010.57 94.50 o
-4 15 -7 4814.85 5231.49 126.75 o
-8 15 7 26727.30 26990.90 114.25 o
-7 15 -7 26784.40 27719.20 130.57 o
-5 15 7 60591.40 58811.70 149.46 o
-10 15 -7 61518.00 62993.10 140.04 o
0 1 8 19369.60 17209.00 122.10 o
-1 1 -8 18650.30 19281.40 129.04 o
-2 2 8 30033.60 26443.60 135.24 o
0 2 -8 29156.30 27545.50 139.86 o
-1 3 8 567.60 708.44 66.70 o
-2 3 -8 632.39 795.90 69.01 o
-3 4 8 24572.10 23921.20 94.16 o
-1 4 -8 24951.60 23482.50 101.26 o
0 4 8 36566.30 32962.10 154.62 o
-4 4 -8 36583.00 36861.40 159.38 o
-5 5 8 55794.40 59903.20 190.54 o
0 5 -8 59336.80 53223.30 179.02 o
-2 5 8 27876.40 21209.30 106.12 o
-3 5 -8 26303.40 26903.70 98.90 o
-4 6 8 25149.70 24388.40 98.64 o
-2 6 -8 24957.10 24804.70 98.63 o
-1 6 8 611.97 687.69 69.00 o
-5 6 -8 397.79 726.66 73.59 o
-6 7 8 37287.10 36841.40 111.18 o
-1 7 -8 37959.50 38119.30 108.87 o
-3 7 8 43544.30 45973.20 107.09 o
-4 7 -8 44891.40 42348.00 119.12 o
0 7 8 35085.90 31979.90 181.68 o
-7 7 -8 34152.90 34771.00 155.62 o
-8 8 8 159825.00 157561.00 265.50 o
0 8 -8 160567.00 166813.00 273.29 o
-5 8 8 78193.10 79307.50 131.42 o
-3 8 -8 78998.80 77735.80 153.42 o
-2 8 8 38177.80 38996.10 106.37 o
-6 8 -8 38362.70 37994.20 111.11 o
-7 9 8 15375.30 14653.80 88.28 o
-2 9 -8 14220.00 15642.70 97.49 o
-4 9 8 5034.17 4913.81 73.82 o
-5 9 -8 4841.26 4885.46 87.65 o
-1 9 8 5246.08 4722.11 85.35 o
-8 9 -8 5026.50 5226.54 87.65 o
-9 10 8 34268.00 32907.80 103.31 o
-1 10 -8 32472.80 34466.60 147.75 o
-6 10 8 17456.50 17358.20 90.69 o
-4 10 -8 17301.40 18174.80 95.33 o
-3 10 8 8558.67 8735.59 78.59 o
-7 10 -8 8611.45 8779.81 92.47 o
0 10 8 9503.20 9581.01 138.72 o
-10 10 -8 9694.30 9743.97 136.43 o
-11 11 8 139648.00 142443.00 218.28 o
0 11 -8 137601.00 135126.00 374.16 o
-8 11 8 131464.00 135315.00 163.82 o
-3 11 -8 131060.00 136327.00 178.67 o
-5 11 8 60806.50 61485.00 124.06 o
-6 11 -8 59876.30 62814.70 126.37 o
-2 11 8 15531.30 15772.80 97.45 o
-9 11 -8 16292.30 15661.60 102.14 o
-10 12 8 33488.70 35933.60 96.04 o
-2 12 -8 34483.20 33904.90 150.00 o
-7 12 8 18362.40 18954.30 97.59 o
-5 12 -8 18574.30 19093.80 97.61 o
-4 12 8 8898.62 8921.84 101.67 o
-8 12 -8 9085.16 8899.70 92.44 o
-1 12 8 1723.61 1801.67 110.45 o
-11 12 -8 1832.88 1783.37 87.44 o
-12 13 8 29288.60 29946.30 105.07 o
-1 13 -8 29770.90 27877.70 177.49 o
-9 13 8 29853.00 31376.60 107.50 o
-4 13 -8 30716.80 31239.50 130.93 o
-6 13 8 16627.30 16033.70 106.74 o
-7 13 -8 16441.70 16865.00 102.08 o
-3 13 8 4412.96 3892.09 108.31 o
-10 13 -8 4034.21 4672.30 82.94 o
0 13 8 3590.52 3429.38 246.44 o
-13 13 -8 3408.47 3802.12 142.78 o
-11 14 8 85130.90 88371.50 136.92 o
-3 14 -8 86340.20 86629.50 197.09 o
-8 14 8 58435.60 58595.00 135.17 o
-6 14 -8 58946.20 59789.50 139.95 o
-5 14 8 22987.70 22340.00 121.02 o
-9 14 -8 22148.30 24353.90 111.66 o
-2 14 8 574.45 561.07 131.07 o
-12 14 -8 495.45 917.45 89.68 o
-10 15 8 20339.20 20835.50 197.48 o
-5 15 -8 21082.20 20155.50 190.59 o
-7 15 8 20399.70 19966.20 118.50 o
-8 15 -8 20642.20 21128.30 113.87 o
-1 2 9 209627.00 189937.00 215.26 o
-1 2 -9 210712.00 195824.00 240.30 o
-2 4 9 172939.00 161911.00 190.86 o
-2 4 -9 172476.00 170977.00 198.74 o
-4 5 9 122990.00 119022.00 167.17 o
-1 5 -9 122125.00 120289.00 169.59 o
-1 5 9 116246.00 111502.00 163.80 o
-4 5 -9 116657.00 118918.00 168.90 o
-3 6 9 977.41 1233.10 71.32 o
-3 6 -9 852.69 1193.87 69.01 o
-5 7 9 85309.80 85085.80 144.20 o
-2 7 -9 86045.30 86224.80 144.27 o
-2 7 9 91386.30 91016.20 142.35 o
-5 7 -9 89737.40 89593.50 149.54 o
-7 8 9 44439.00 43136.30 118.40 o
-1 8 -9 44618.30 45611.60 118.42 o
-4 8 9 50338.00 50604.80 109.51 o
-4 8 -9 49387.20 50065.30 121.33 o
-1 8 9 28453.50 28434.30 112.47 o
-7 8 -9 29036.30 27967.10 100.79 o
-6 9 9 1657.06 1767.39 75.94 o
-3 9 -9 1328.71 1882.05 85.13 o
-3 9 9 3725.60 4330.05 73.74 o
-6 9 -9 4191.46 3718.21 85.29 o
-8 10 9 13466.30 15005.10 88.07 o
-2 10 -9 14988.20 13884.50 104.39 o
-5 10 9 31082.40 31904.90 105.47 o
-5 10 -9 31456.20 32090.40 103.15 o
-2 10 9 26863.60 26305.30 109.82 o
-8 10 -9 26697.60 27316.70 114.48 o
-10 11 9 5026.27 4762.87 82.99 o
-1 11 -9 4460.26 5007.93 135.97 o
-7 11 9 3846.53 3419.21 85.25 o
-4 11 -9 3371.39 4077.01 82.92 o
-4 11 9 5752.70 6820.81 89.96 o
-7 11 -9 6620.31 5894.26 99.24 o
-1 11 9 4721.46 4847.33 103.72 o
-10 11 -9 4671.85 5001.62 103.72 o
-9 12 9 4840.17 5119.48 92.20 o
-3 12 -9 4727.17 5252.83 112.94 o
-6 12 9 9561.82 9162.32 94.77 o
-6 12 -9 9293.55 9828.80 92.44 o
-3 12 9 3888.05 4559.22 105.97 o
-9 12 -9 4586.51 4309.80 99.10 o
-11 13 9 2637.64 2753.21 85.17 o
-2 13 -9 2596.13 2539.07 131.21 o
-8 13 9 5095.99 5082.99 92.21 o
-5 13 -9 5037.09 5493.15 92.21 o
-5 13 9 9399.93 9161.72 103.98 o
-8 13 -9 9175.51 9426.29 94.72 o
-2 13 9 2423.65 2018.64 131.20 o
-11 13 -9 2267.84 2681.32 98.97 o
-10 14 9 3246.60 3101.77 92.11 o
-4 14 -9 3110.47 3145.29 135.85 o
-7 14 9 1789.40 2011.05 110.45 o
-7 14 -9 1880.94 1983.54 103.55 o
-4 14 9 2261.64 2342.95 110.47 o
-10 14 -9 2224.86 2642.10 101.26 o
-1 1 10 10126.00 9519.29 106.67 o
0 1 -10 10456.90 9675.09 106.70 o
0 2 10 16507.70 13382.00 116.55 o
-2 2 -10 16041.30 15296.70 118.83 o
-2 3 10 372.97 593.27 68.98 o
-1 3 -10 427.99 607.09 71.29 o
-4 4 10 23008.70 21190.20 131.05 o
0 4 -10 22434.30 22294.30 135.67 o
-1 4 10 10616.00 9363.37 83.46 o
-3 4 -10 10747.30 10280.10 83.47 o
-3 5 10 27988.40 26530.10 103.32 o
-2 5 -10 27120.80 28047.50 105.60 o
0 5 10 47019.00 44148.80 171.29 o
-5 5 -10 48661.90 46673.00 181.01 o
-5 6 10 2286.23 2749.25 75.98 o
-1 6 -10 2450.55 2360.40 89.81 o
-2 6 10 6656.89 5848.82 80.85 o
-4 6 -10 6322.54 6683.40 85.45 o
-7 7 10 25380.20 22607.10 144.92 o
0 7 -10 23569.00 26484.00 165.76 o
-4 7 10 18055.50 18110.00 93.11 o
-3 7 -10 18619.30 18384.80 95.48 o
-1 7 10 21481.40 21175.10 100.29 o
-6 7 -10 21577.90 21304.70 109.63 o
-6 8 10 18349.10 16921.90 102.36 o
-2 8 -10 18031.60 18221.00 104.67 o
-3 8 10 76696.40 79116.00 132.83 o
-5 8 -10 77494.60 75934.50 144.98 o
0 8 10 94077.80 93900.50 211.70 o
-8 8 -10 94598.50 94308.80 221.50 o
-8 9 10 368.22 489.75 91.97 o
-1 9 -10 309.48 563.30 101.17 o
-5 9 10 6337.13 6603.15 87.70 o
-4 9 -10 6796.52 6302.63 87.73 o
-2 9 10 27934.80 27498.30 107.57 o
-7 9 -10 27911.10 27968.00 112.25 o
-10 10 10 9863.46 9491.45 122.51 o
0 10 -10 9416.49 9625.42 189.50 o
-7 10 10 17795.10 18675.90 99.90 o
-3 10 -10 18518.30 17870.40 109.24 o
-4 10 10 25299.20 27783.20 105.02 o
-6 10 -10 26673.70 26072.70 112.11 o
-1 10 10 36546.30 35165.80 122.06 o
-9 10 -10 34456.20 37410.30 126.60 o
-9 11 10 6803.26 7707.28 94.61 o
-2 11 -10 7279.37 6933.79 126.95 o
-6 11 10 61817.70 60279.20 130.93 o
-5 11 -10 60405.30 63562.20 133.20 o
-3 11 10 91410.70 88954.60 157.14 o
-8 11 -10 90897.30 93382.20 157.10 o
0 11 10 102041.00 102008.00 230.39 o
-11 11 -10 101295.00 103914.00 230.30 o
-11 12 10 266.68 379.35 85.07 o
-1 12 -10 195.71 869.03 151.74 o
-8 12 10 4029.12 4423.47 94.46 o
-4 12 -10 4322.17 4138.46 99.08 o
-5 12 10 16327.00 16715.10 111.34 o
-7 12 -10 17222.90 17055.20 104.43 o
-2 12 10 20939.50 18728.70 144.14 o
-10 12 -10 20500.70 21469.30 120.86 o
-10 13 10 4527.78 4534.87 94.48 o
-3 13 -10 4555.83 4583.32 135.96 o
-7 13 10 9831.08 9800.78 108.61 o
-6 13 -10 9835.13 9872.44 106.30 o
-4 13 10 15023.40 14116.60 120.50 o
-9 13 -10 14889.70 15628.60 111.22 o
-6 14 10 46688.10 45099.80 164.85 o
-8 14 -10 47240.90 47291.40 143.69 o
-1 3 11 17889.60 16294.40 86.20 o
-2 3 -11 18529.60 17365.00 86.24 o
-3 4 11 11693.70 11687.00 85.78 o
-1 4 -11 12397.90 11639.60 88.14 o
-2 5 11 8315.66 7350.80 85.56 o
-3 5 -11 7888.82 8786.41 90.15 o
-4 6 11 42167.60 37785.80 111.13 o
-2 6 -11 39443.50 42157.70 115.65 o
-1 6 11 12331.30 12367.50 97.35 o
-5 6 -11 13238.70 12553.50 102.04 o
-6 7 11 55595.60 51367.60 128.53 o
-1 7 -11 56553.00 55846.40 130.98 o
-3 7 11 17499.20 16368.30 97.65 o
-4 7 -11 17000.90 17390.40 102.27 o
-5 8 11 380.28 590.92 75.88 o
-3 8 -11 444.46 616.24 91.98 o
-2 8 11 6675.23 6128.45 87.71 o
-6 8 -11 6464.35 6748.49 94.63 o
-7 9 11 70777.80 68449.70 134.09 o
-2 9 -11 68392.20 73774.20 157.82 o
-4 9 11 41875.90 43055.70 113.11 o
-5 9 -11 42587.10 42333.30 124.95 o
-1 9 11 10896.60 11654.60 101.79 o
-8 9 -11 11721.40 11030.60 101.84 o
-9 10 11 61448.60 64154.80 130.75 o
-1 10 -11 63821.30 61510.70 254.69 o
-6 10 11 44032.30 45412.90 122.57 o
-4 10 -11 46369.40 45639.80 127.45 o
-3 10 11 22354.50 20551.00 109.43 o
-7 10 -11 20931.30 22518.80 118.64 o
-8 11 11 4500.42 4970.78 94.48 o
-3 11 -11 4756.60 5102.86 112.94 o
-5 11 11 2968.73 2753.89 94.41 o
-6 11 -11 2630.27 3075.67 96.69 o
-2 11 11 2297.37 1799.90 131.20 o
-9 11 -11 1708.51 2508.00 105.84 o
-10 12 11 63884.20 65476.40 125.94 o
-2 12 -11 63166.50 64241.10 239.91 o
-7 12 11 51067.20 49196.20 129.91 o
-5 12 -11 49939.30 52526.50 139.28 o
-4 12 11 18369.40 18994.60 123.04 o
-8 12 -11 19861.20 18679.70 109.20 o
-1 12 11 2140.43 2241.53 161.10 o
-11 12 -11 2148.51 2207.01 174.90 o
-9 13 11 46691.40 44044.50 226.07 o
-4 13 -11 46261.70 49184.00 195.42 o
-6 13 11 24450.60 23072.60 121.08 o
-7 13 -11 23950.90 25250.10 118.72 o
0 0 12 110533.00 90454.40 342.20 o
0 0 -12 101838.00 108012.00 367.36 o
-1 2 12 60878.60 54000.40 115.06 o
-1 2 -12 62174.60 59745.60 119.96 o
-3 3 12 149061.00 138267.00 240.53 o
0 3 -12 151469.00 148753.00 251.02 o
0 3 12 161014.00 140219.00 244.84 o
-3 3 -12 159110.00 163768.00 262.39 o
-2 4 12 29514.10 27255.70 98.47 o
-2 4 -12 28696.70 30036.60 105.45 o
-4 5 12 18530.30 18814.30 95.39 o
-1 5 -12 18870.10 18590.40 102.39 o
-1 5 12 22793.60 19852.60 97.98 o
-4 5 -12 21978.40 24057.90 102.59 o
-6 6 12 76619.40 72179.60 216.62 o
0 6 -12 76748.90 79045.20 221.45 o
-3 6 12 98185.20 93521.80 151.38 o
-3 6 -12 100457.00 100874.00 158.92 o
0 6 12 86363.10 84996.90 244.47 o
-6 6 -12 87539.40 87014.40 220.42 o
-5 7 12 6789.89 6488.66 92.33 o
-2 7 -12 6529.38 7233.10 92.32 o
-2 7 12 12416.40 11916.90 97.28 o
-5 7 -12 11971.20 12682.40 104.20 o
-7 8 12 16083.40 15318.10 104.41 o
-1 8 -12 16092.90 16895.90 113.69 o
-4 8 12 16152.60 16399.10 92.83 o
-4 8 -12 15991.10 16293.10 113.71 o
-1 8 12 12819.80 12380.70 120.43 o
-7 8 -12 13226.10 13280.00 104.24 o
-9 9 12 14943.90 13347.60 171.51 o
0 9 -12 13653.20 16337.60 243.19 o
-6 9 12 24515.70 23657.00 104.89 o
-3 9 -12 23767.90 25762.70 116.50 o
-3 9 12 21915.60 20827.00 104.74 o
-6 9 -12 21218.10 22382.30 118.66 o
0 9 12 13383.80 13046.80 143.57 o
-9 9 -12 13046.10 14255.30 159.76 o
-8 10 12 2695.46 3144.77 98.99 o
-2 10 -12 2897.65 2779.03 119.73 o
-5 10 12 1717.14 1932.82 98.94 o
-5 10 -12 1720.32 2119.20 105.85 o
-2 10 12 3193.03 3265.37 122.05 o
-8 10 -12 3466.41 3459.32 110.55 o
-10 11 12 2314.10 2414.36 92.06 o
-1 11 -12 2334.91 2402.88 158.81 o
-7 11 12 16117.50 15640.20 104.35 o
-4 11 -12 16212.80 16153.50 118.26 o
-4 11 12 10883.00 10097.80 115.61 o
-7 11 -12 10550.50 11050.80 108.66 o
-1 11 12 1874.41 1916.78 108.15 o
-10 11 -12 1947.54 2268.92 108.15 o
-9 12 12 4653.80 4493.57 165.92 o
-3 12 -12 4856.42 5982.84 255.82 o
-6 12 12 5048.37 5123.85 108.33 o
-6 12 -12 5188.46 5334.00 108.34 o
-3 12 12 4290.75 1992.92 444.66 o
-9 12 -12 4052.35 4538.23 163.56 o
-2 3 13 5931.80 5436.49 83.07 o
-1 3 -13 5988.56 6057.42 80.77 o
-1 4 13 12594.50 11362.10 90.36 o
-3 4 -13 12685.50 13390.20 95.00 o
-3 5 13 3299.12 3328.46 87.53 o
-2 5 -13 3305.53 3793.77 89.83 o
-5 6 13 14642.40 14791.00 106.66 o
-1 6 -13 14870.40 15555.90 115.95 o
-2 6 13 30829.90 28008.20 112.37 o
-4 6 -13 30663.00 32490.50 117.04 o
-4 7 13 12276.10 12409.60 101.87 o
-3 7 -13 12819.20 13061.90 99.59 o
-1 7 13 44491.70 40977.30 134.37 o
-6 7 -13 43697.50 45751.90 129.60 o
-6 8 13 4495.72 4450.17 110.62 o
-2 8 -13 4603.01 4948.26 99.10 o
-3 8 13 1705.63 1638.31 85.14 o
-5 8 -13 1605.12 1675.03 98.94 o
-8 9 13 14625.20 14073.40 120.48 o
-1 9 -13 14774.40 16095.10 132.08 o
-5 9 13 29156.50 28052.50 114.45 o
-4 9 -13 28092.40 29682.10 130.73 o
-2 9 13 41687.70 40661.00 148.12 o
-7 9 -13 42399.10 43225.90 141.12 o
-7 10 13 9054.26 9537.81 108.57 o
-3 10 -13 9560.49 9593.53 117.84 o
-4 10 13 28809.80 27639.60 119.06 o
-6 10 -13 27478.70 30218.90 135.30 o
-1 10 13 52366.50 52527.70 151.18 o
-9 10 -13 53408.60 56216.50 158.35 o
-6 11 13 539.85 722.02 105.77 o
-5 11 -13 575.88 853.10 110.38 o
-3 11 13 1092.29 949.94 138.01 o
-8 11 -13 1107.42 1115.55 108.11 o
0 1 14 805.93 699.17 112.69 o
-1 1 -14 541.75 1039.39 112.68 o
-2 2 14 7618.36 6475.47 124.71 o
0 2 -14 7249.30 8055.60 122.37 o
-1 3 14 210.86 388.54 75.87 o
-2 3 -14 238.38 305.78 82.77 o
-3 4 14 5587.79 5454.51 85.33 o
-1 4 -14 5813.74 5785.09 89.96 o
0 4 14 8578.84 7362.95 131.69 o
-4 4 -14 8626.54 9465.59 136.31 o
-5 5 14 29056.10 28194.70 165.92 o
0 5 -14 28655.70 31915.00 172.89 o
-2 5 14 11810.00 10778.70 99.52 o
-3 5 -14 11877.80 12246.60 99.53 o
-4 6 14 6284.75 6030.45 117.66 o
-2 6 -14 6093.57 6592.64 94.58 o
-1 6 14 649.16 749.67 94.28 o
-5 6 -14 542.47 742.73 98.88 o
-6 7 14 12671.80 12472.30 115.74 o
-1 7 -14 13481.80 13679.70 115.79 o
-3 7 14 15876.00 15273.60 106.68 o
-4 7 -14 16171.80 16698.00 118.29 o
0 7 14 12701.70 12247.10 159.71 o
-7 7 -14 12224.80 13463.40 148.10 o
-8 8 14 60417.70 58019.20 218.27 o
0 8 -14 59318.20 68929.50 225.26 o
-5 8 14 35091.10 34931.40 135.87 o
-3 8 -14 35942.80 36747.20 145.31 o
-2 8 14 12137.40 11891.20 118.01 o
-6 8 -14 12175.10 12784.70 124.95 o
-7 9 14 8152.83 7270.23 120.06 o
-2 9 -14 7655.00 8962.49 138.49 o
-4 9 14 3831.20 3902.12 96.75 o
-5 9 -14 3691.48 4116.04 122.08 o
-1 9 14 1486.28 1387.25 108.13 o
-8 9 -14 1296.64 1720.66 112.72 o
-6 10 14 13781.40 13135.60 122.72 o
-4 10 -14 13058.60 14882.70 131.93 o
-7 10 -14 4941.01 5794.12 209.73 o
-1 2 15 78232.50 62295.30 129.66 o
-1 2 -15 79257.10 82724.50 144.15 o
-2 4 15 54153.70 49361.80 132.63 o
-2 4 -15 53180.60 60073.20 134.93 o
-4 5 15 51164.30 46743.40 134.71 o
-1 5 -15 49512.90 55259.90 141.68 o
-1 5 15 36237.80 33406.20 124.26 o
-4 5 -15 37144.90 40304.90 138.40 o
-3 6 15 174.82 314.96 103.46 o
-3 6 -15 146.36 354.04 103.45 o
-5 7 15 28876.70 28698.00 130.72 o
-2 7 -15 29639.50 32151.70 135.44 o
-2 7 15 35418.40 33930.90 133.51 o
-5 7 -15 34816.60 38516.80 140.49 o
-7 8 15 15365.90 14172.80 194.65 o
-1 8 -15 15133.10 17496.00 169.14 o
-4 8 15 22696.90 23073.30 116.32 o
-4 8 -15 23242.40 24010.70 141.95 o
-1 8 15 12632.50 13479.20 224.46 o
-7 8 -15 12648.70 14435.00 159.67 o
-1 1 16 1503.93 954.78 133.44 o
0 1 -16 1167.32 1766.59 131.11 o
0 2 16 5296.83 4631.61 140.63 o
-2 2 -16 5698.85 5644.93 145.27 o
-2 3 16 180.69 1064.44 94.26 o
-1 3 -16 177.08 749.47 101.16 o
-4 4 16 9633.12 9274.98 159.43 o
0 4 -16 9818.93 10724.80 157.14 o
-1 4 16 5673.18 5040.49 101.46 o
-3 4 -16 5744.96 6205.16 106.07 o
-3 5 16 7732.56 6975.61 113.11 o
-2 5 -16 7216.34 8840.58 115.38 o
0 5 16 15464.20 13824.60 173.82 o
-5 5 -16 15021.30 16859.10 178.42 o
-5 6 16 206.43 206.91 117.25 <
-1 6 -16 127.43 423.00 117.25 o
-2 6 16 3093.78 3136.05 105.92 o
-4 6 -16 3308.32 3705.20 112.84 o
-1 3 17 4710.34 3942.97 103.70 o
-2 3 -17 4783.18 5395.00 110.62 o
