#------------------------------------------------------------------------------
#$Date: 2016-02-13 21:28:24 +0200 (Sat, 13 Feb 2016) $
#$Revision: 176429 $
#$URL: svn://www.crystallography.net/cod/cif/1/53/14/1531448.cif $
#------------------------------------------------------------------------------
#
# This file is available in the Crystallography Open Database (COD),
# http://www.crystallography.net/
#
# All data on this site have been placed in the public domain by the
# contributors.
#
data_1531448
loop_
_publ_author_name
'Guenee, L.'
'Yvon, K.'
_publ_section_title
;
 Synthesis, crystal structure and hydrogenation properties of the novel
 metal compound La Ni2 Mn3
;
_journal_name_full               'Journal of Alloys Compd.'
_journal_page_first              176
_journal_page_last               183
_journal_volume                  348
_journal_year                    2003
_chemical_formula_sum            'La Mn3 Ni2'
_chemical_name_systematic        'La Ni2 Mn3'
_space_group_IT_number           191
_symmetry_space_group_name_Hall  '-P 6 2'
_symmetry_space_group_name_H-M   'P 6/m m m'
_cell_angle_alpha                90
_cell_angle_beta                 90
_cell_angle_gamma                120
_cell_formula_units_Z            3
_cell_length_a                   9.2099
_cell_length_b                   9.2099
_cell_length_c                   4.1892
_cell_volume                     307.731
_citation_journal_id_ASTM        JALCEU
_cod_data_source_file            Guenee_JALCEU_2003_1267.cif
_cod_data_source_block           La1Mn3Ni2
_cod_original_cell_volume        307.7312
_cod_original_formula_sum        'La1 Mn3 Ni2'
_cod_database_code               1531448
loop_
_symmetry_equiv_pos_as_xyz
x,y,z
x-y,x,z
-y,x-y,z
-x,-y,z
-x+y,-x,z
y,-x+y,z
-y,-x,-z
x-y,-y,-z
x,x-y,-z
y,x,-z
-x+y,y,-z
-x,-x+y,-z
-x,-y,-z
-x+y,-x,-z
y,-x+y,-z
x,y,-z
x-y,x,-z
-y,x-y,-z
y,x,z
-x+y,y,z
-x,-x+y,z
-y,-x,z
x-y,-y,z
x,x-y,z
loop_
_atom_site_label
_atom_site_type_symbol
_atom_site_fract_x
_atom_site_fract_y
_atom_site_fract_z
_atom_site_occupancy
_atom_site_U_iso_or_equiv
Mn2 Mn 0.5 0 0 1 0.0
La2 La 0.3333 0.6667 0.5 1 0.0
La1 La 0 0 0 1 0.0
Mn1 Mn 0.2985 0 0.5 1 0.0
Ni1 Ni 0.18159 0.36318 0 1 0.0
